N = 10;
H = 5;
T = 2;

avail = array3d(1..N, 1..H, 1..T, [10, 6, 2, 8, 4, 7, 4, 9, 9, 2, 0, 0, 2, 8, 4, 7, 3, 6, 0, 7, 4, 8, 0, 1, 0, 2, 0, 8, 4, 3, 8, 1, 2, 8, 2, 6, 1, 9, 1, 1, 7, 7, 7, 3, 9, 0, 5, 2, 3, 2, 6, 8, 0, 9, 2, 1, 10, 8, 1, 10, 7, 6, 8, 1, 3, 7, 2, 0, 3, 7, 1, 5, 6, 5, 5, 2, 4, 7, 10, 8, 5, 5, 7, 4, 5, 4, 7, 7, 1, 8, 5, 10, 4, 0, 3, 1, 8, 5, 8, 8]);

r = array2d(1..H, 1..T, [3, 2, 5, 5, 3, 5, 0, 1, 2, 3]);
